%%%mzn-stat: initTime=0.0144817
%%%mzn-stat: objective=305
%%%mzn-stat: nodes=58078
%%%mzn-stat: restarts=0
%%%mzn-stat: peakDepth=448
%%%mzn-stat: solveTime=3.121244606
%%%mzn-stat: variables=1137
%%%mzn-stat: propagators=830
%%%mzn-stat: failures=8412
%%%mzn-stat: propagations=517975
%%%mzn-stat: nogoods=8412
%%%mzn-stat: AverageConflictSize=32.09581550166429
%%%mzn-stat: NumUnitNogoodsLearned=304
%%%mzn-stat: AverageLearnedNogoodLength=35.051830718021876
%%%mzn-stat: AverageBacktrackAmount=0
%%%mzn-stat: AverageLbd=21.217665240133144
%%%mzn-stat-end
maxleg = 305;
succ = array1d(1..50,[2, 12, 38, 8, 45, 26, 27, 6, 4, 49, 23, 31, 35, 10, 7, 15, 39, 22, 40, 32, 36, 41, 50, 20, 18, 48, 25, 1, 37, 33, 46, 17, 13, 9, 42, 30, 21, 16, 47, 11, 44, 43, 14, 29, 3, 24, 34, 5, 19, 28]);
% time elapsed: 4.71 s
----------
==========
% time elapsed: 4.71 s
%%%mzn-stat: initTime=0.0144817
%%%mzn-stat: objective=305
%%%mzn-stat: nodes=58078
%%%mzn-stat: restarts=0
%%%mzn-stat: peakDepth=448
%%%mzn-stat: solveTime=3.121249609
%%%mzn-stat: variables=1137
%%%mzn-stat: propagators=830
%%%mzn-stat: failures=8412
%%%mzn-stat: propagations=517975
%%%mzn-stat: nogoods=8412
%%%mzn-stat: AverageConflictSize=32.09581550166429
%%%mzn-stat: NumUnitNogoodsLearned=304
%%%mzn-stat: AverageLearnedNogoodLength=35.051830718021876
%%%mzn-stat: AverageBacktrackAmount=0
%%%mzn-stat: AverageLbd=21.217665240133144
%%%mzn-stat-end
